\ENCODING=ISO-8859-1
\Problem name: IloCplex

Minimize
 obj1: - 1.975 x_00 - 2.075 x_02 + 0.975 x_01 - 2.325 x_17 - 3.225 x_15
       - 1.175 x_14 + 1.725 x_16 - 1.125 x_03 - 1.175 x_04 - 3.225 x_05
       + 1.725 x_06 - 2.325 x_07 + 0.975 x_11 - 1.975 x_10 - 1.125 x_13
       - 2.075 x_12
Subject To
 c1:   u_00 <= 1
 c2:   u_01 <= 2
 c3:   u_02 <= 1
 c4:   u_03 <= 1
 c5:   u_04 <= 3
 c6:   u_05 <= 0
 c7:   u_06 <= 3
 c8:   u_07 <= 2
 c9:   u_10 <= 1
 c10:  u_11 <= 0
 c11:  u_12 <= 3
 c12:  u_13 <= 0
 c13:  u_14 <= 2
 c14:  u_15 <= 2
 c15:  u_16 <= 3
 c16:  u_17 <= 3
 c17:  u_00 + u_04 <= 5.05438
 c18:  u_01 + u_07 <= 5.9738
 c19:  u_00 + u_03 + u_07 <= 4.71973
 c20:  u_05 + u_06 <= 4.63332
 c21:  u_02 + u_05 <= 7.24407
 c22:  u_03 + u_05 <= 5.13993
 c23:  u_04 + u_07 <= 5.26016
 c24:  u_04 + u_06 <= 4.25959
 c25:  x_00 >= 1
 c26:  - 300 hap_1_0 + ap_0 <= 0
 c27:  x_00 + 2 hap_1_0 <= 3
 c28:  - x_02 - x_01 >= -1
 c29:  - 300 han_2_0 + an_0 <= 0
 c30:  - x_02 - x_01 + 2 han_2_0 <= 1
 c31:  x_17 + x_15 + x_14 >= 1
 c32:  - 300 hap_1_1 + ap_1 <= 0
 c33:  x_17 + x_15 + x_14 + 2 hap_1_1 <= 3
 c34:  - x_16 >= -1
 c35:  - 300 han_2_1 + an_1 <= 0
 c36:  - x_16 + 2 han_2_1 <= 1
 c37:  - x_00 + x_01 >= 0
 c38:  - 300 hb_00 + b_00 <= 0
 c39:  - x_00 + x_01 + 2 hb_00 <= 2
 c40:  - x_03 >= 0
 c41:  - 300 hb_04 + b_04 <= 0
 c42:  - x_03 + 2 hb_04 <= 2
 c43:  - x_04 >= 0
 c44:  - 300 hb_05 + b_05 <= 0
 c45:  - x_04 + 2 hb_05 <= 2
 c46:  x_02 - x_05 >= 0
 c47:  - 300 hb_06 + b_06 <= 0
 c48:  x_02 - x_05 + 2 hb_06 <= 2
 c49:  - x_06 >= 0
 c50:  - 300 hb_07 + b_07 <= 0
 c51:  - x_06 + 2 hb_07 <= 2
 c52:  x_06 - x_07 >= 0
 c53:  - 300 hb_08 + b_08 <= 0
 c54:  x_06 - x_07 + 2 hb_08 <= 2
 c55:  x_04 + x_05 + x_07 >= 0
 c56:  - 300 hb_09 + b_09 <= 0
 c57:  x_04 + x_05 + x_07 + 2 hb_09 <= 2
 c58:  x_11 - x_10 >= 0
 c59:  - 300 hb_10 + b_10 <= 0
 c60:  x_11 - x_10 + 2 hb_10 <= 2
 c61:  x_10 >= 0
 c62:  - 300 hb_12 + b_12 <= 0
 c63:  x_10 + 2 hb_12 <= 2
 c64:  - x_11 + x_13 - x_12 >= 0
 c65:  - 300 hb_13 + b_13 <= 0
 c66:  - x_11 + x_13 - x_12 + 2 hb_13 <= 2
 c67:  - x_13 >= 0
 c68:  - 300 hb_14 + b_14 <= 0
 c69:  - x_13 + 2 hb_14 <= 2
 c70:  - x_14 >= 0
 c71:  - 300 hb_15 + b_15 <= 0
 c72:  - x_14 + 2 hb_15 <= 2
 c73:  - x_15 + x_12 >= 0
 c74:  - 300 hb_16 + b_16 <= 0
 c75:  - x_15 + x_12 + 2 hb_16 <= 2
 c76:  - x_17 + x_16 >= 0
 c77:  - 300 hb_18 + b_18 <= 0
 c78:  - x_17 + x_16 + 2 hb_18 <= 2
 c79:  - u_00 + ap_0 - b_00 <= 0.025
 c80:  x_00 - 2 hdu_00 <= 0
 c81:  u_00 - ap_0 + b_00 + 300 hdu_00 <= 299.975
 c82:  - u_01 - an_0 + b_00 <= 1.975
 c83:  x_01 - 2 hdu_01 <= 0
 c84:  u_01 + an_0 - b_00 + 300 hdu_01 <= 298.025
 c85:  - u_02 - an_0 + b_06 <= -0.075
 c86:  x_02 - 2 hdu_02 <= 0
 c87:  u_02 + an_0 - b_06 + 300 hdu_02 <= 300.075
 c88:  - u_03 - b_04 <= -0.125
 c89:  x_03 - 2 hdu_03 <= 0
 c90:  u_03 + b_04 + 300 hdu_03 <= 300.125
 c91:  - u_04 - b_05 + b_09 <= -0.175
 c92:  x_04 - 2 hdu_04 <= 0
 c93:  u_04 + b_05 - b_09 + 300 hdu_04 <= 300.175
 c94:  - u_05 - b_06 + b_09 <= -0.225
 c95:  x_05 - 2 hdu_05 <= 0
 c96:  u_05 + b_06 - b_09 + 300 hdu_05 <= 300.225
 c97:  - u_06 - b_07 + b_08 <= 2.725
 c98:  x_06 - 2 hdu_06 <= 0
 c99:  u_06 + b_07 - b_08 + 300 hdu_06 <= 297.275
 c100: - u_07 - b_08 + b_09 <= -0.325
 c101: x_07 - 2 hdu_07 <= 0
 c102: u_07 + b_08 - b_09 + 300 hdu_07 <= 300.325
 c103: - u_10 - b_10 + b_12 <= 0.025
 c104: x_10 - 2 hdu_10 <= 0
 c105: u_10 + b_10 - b_12 + 300 hdu_10 <= 299.975
 c106: - u_11 + b_10 - b_13 <= 1.975
 c107: x_11 - 2 hdu_11 <= 0
 c108: u_11 - b_10 + b_13 + 300 hdu_11 <= 298.025
 c109: - u_12 - b_13 + b_16 <= -0.075
 c110: x_12 - 2 hdu_12 <= 0
 c111: u_12 + b_13 - b_16 + 300 hdu_12 <= 300.075
 c112: - u_13 + b_13 - b_14 <= -0.125
 c113: x_13 - 2 hdu_13 <= 0
 c114: u_13 - b_13 + b_14 + 300 hdu_13 <= 300.125
 c115: - u_14 + ap_1 - b_15 <= -0.175
 c116: x_14 - 2 hdu_14 <= 0
 c117: u_14 - ap_1 + b_15 + 300 hdu_14 <= 300.175
 c118: - u_15 + ap_1 - b_16 <= -0.225
 c119: x_15 - 2 hdu_15 <= 0
 c120: u_15 - ap_1 + b_16 + 300 hdu_15 <= 300.225
 c121: - u_16 - an_1 + b_18 <= 2.725
 c122: x_16 - 2 hdu_16 <= 0
 c123: u_16 + an_1 - b_18 + 300 hdu_16 <= 297.275
 c124: - u_17 + ap_1 - b_18 <= -0.325
 c125: x_17 - 2 hdu_17 <= 0
 c126: u_17 - ap_1 + b_18 + 300 hdu_17 <= 300.325
Bounds
 0 <= x_00 <= 1
 0 <= hap_1_0 <= 1
 0 <= x_02 <= 1
 0 <= x_01 <= 1
 0 <= han_2_0 <= 1
 0 <= x_17 <= 1
 0 <= x_15 <= 1
 0 <= x_14 <= 1
 0 <= hap_1_1 <= 1
 0 <= x_16 <= 1
 0 <= han_2_1 <= 1
 0 <= hb_00 <= 1
 0 <= x_03 <= 1
 0 <= hb_04 <= 1
 0 <= x_04 <= 1
 0 <= hb_05 <= 1
 0 <= x_05 <= 1
 0 <= hb_06 <= 1
 0 <= x_06 <= 1
 0 <= hb_07 <= 1
 0 <= x_07 <= 1
 0 <= hb_08 <= 1
 0 <= hb_09 <= 1
 0 <= x_11 <= 1
 0 <= x_10 <= 1
 0 <= hb_10 <= 1
 0 <= hb_12 <= 1
 0 <= x_13 <= 1
 0 <= x_12 <= 1
 0 <= hb_13 <= 1
 0 <= hb_14 <= 1
 0 <= hb_15 <= 1
 0 <= hb_16 <= 1
 0 <= hb_18 <= 1
 0 <= hdu_00 <= 1
 0 <= hdu_01 <= 1
 0 <= hdu_02 <= 1
 0 <= hdu_03 <= 1
 0 <= hdu_04 <= 1
 0 <= hdu_05 <= 1
 0 <= hdu_06 <= 1
 0 <= hdu_07 <= 1
 0 <= hdu_10 <= 1
 0 <= hdu_11 <= 1
 0 <= hdu_12 <= 1
 0 <= hdu_13 <= 1
 0 <= hdu_14 <= 1
 0 <= hdu_15 <= 1
 0 <= hdu_16 <= 1
 0 <= hdu_17 <= 1
Binaries
 hap_1_0  han_2_0  hap_1_1  han_2_1  hb_00  hb_04  hb_05  hb_06  hb_07  hb_08 
 hb_09  hb_10  hb_12  hb_13  hb_14  hb_15  hb_16  hb_18  hdu_00  hdu_01 
 hdu_02  hdu_03  hdu_04  hdu_05  hdu_06  hdu_07  hdu_10  hdu_11  hdu_12 
 hdu_13  hdu_14  hdu_15  hdu_16  hdu_17 
End
